NAME : PR225A
TYPE : PDTSP
DIMENSION : 225
EDGE_WEIGHT_TYPE : EUC_2D
NODE_COORD_SECTION
1 16000 1100
2 15000 1200
3 15000 1200
4 14000 1200
5 14000 1200
6 14000 1200
7 14000 1200
8 14000 1500
9 14000 1200
10 13000 1200
11 13000 1600
12 13000 1800
13 13000 1900
14 13000 1200
15 13000 1200
16 13000 1700
17 13000 1700
18 12000 1300
19 11000 1600
20 9700 1500
21 8000 1100
22 7000 1200
23 6900 1200
24 6800 1200
25 6500 1200
26 6400 1200
27 6300 1200
28 6300 1500
29 6000 1200
30 5800 1200
31 5800 1600
32 5800 1800
33 5800 1900
34 5700 1200
35 5500 1200
36 5400 1700
37 5000 1700
38 4400 1300
39 3800 1600
40 2100 1500
41 2100 3800
42 3800 2300
43 4400 3300
44 5000 2200
45 5400 2200
46 5500 2500
47 5500 3000
48 5800 2000
49 6300 2200
50 8000 2200
51 8700 2500
52 8700 2700
53 8700 2800
54 8700 2800
55 8700 3000
56 8700 3000
57 8700 3200
58 8700 3300
59 8700 3400
60 8700 3500
61 8700 3600
62 8700 3700
63 8700 3800
64 9700 3800
65 11000 2300
66 12000 3300
67 13000 2200
68 13000 2200
69 13000 2500
70 13000 3000
71 13000 2000
72 14000 2200
73 16000 2200
74 16000 2500
75 16000 2700
76 16000 2800
77 16000 2800
78 16000 3000
79 16000 3200
80 16000 3300
81 16000 3400
82 16000 3500
83 16000 3600
84 16000 3700
85 16000 3800
86 4900 6500
87 4900 6700
88 4900 6600
89 4900 6800
90 4900 6900
91 4900 7000
92 4900 7100
93 4900 7200
94 5000 6500
95 5000 6600
96 5000 6700
97 5000 6800
98 5000 6900
99 5000 7000
100 5000 7100
101 5000 7200
102 13000 6500
103 13000 6700
104 13000 6600
105 13000 6800
106 13000 6900
107 13000 7000
108 13000 7100
109 13000 7200
110 13000 6500
111 13000 6600
112 13000 6700
113 13000 6800
114 13000 6900
115 13000 7000
116 13000 7100
117 13000 7200
118 13000 8400
119 13000 8600
120 13000 8600
121 13000 8800
122 13000 8900
123 13000 9000
124 13000 9100
125 13000 8400
126 13000 8600
127 13000 8600
128 13000 8800
129 13000 9000
130 13000 8900
131 13000 9100
132 10000 8800
133 10000 8800
134 9900 8800
135 9800 8800
136 5000 8400
137 5000 8600
138 5000 8600
139 5000 8800
140 5000 8900
141 5000 9000
142 5000 9100
143 4900 8400
144 4900 8600
145 4900 8600
146 4900 8800
147 4900 9000
148 4900 8900
149 4900 9100
150 2400 8800
151 2300 8800
152 2200 8800
153 2100 8800
154 1900 12000
155 2000 12000
156 2100 12000
157 2400 12000
158 2500 12000
159 2600 12000
160 2700 12000
161 2800 12000
162 2900 12000
163 3000 12000
164 3100 12000
165 3400 12000
166 3500 12000
167 3600 12000
168 3700 12000
169 3800 12000
170 4100 12000
171 4200 12000
172 4300 12000
173 4400 12000
174 4500 12000
175 4600 12000
176 4700 12000
177 4800 12000
178 4900 12000
179 5000 12000
180 5400 12000
181 5500 12000
182 5600 12000
183 5700 12000
184 5800 12000
185 5900 12000
186 6000 12000
187 6100 12000
188 6200 12000
189 6300 12000
190 9500 12000
191 9600 12000
192 9700 12000
193 10000 12000
194 10000 12000
195 10000 12000
196 10000 12000
197 10000 12000
198 11000 12000
199 11000 12000
200 11000 12000
201 11000 12000
202 11000 12000
203 11000 12000
204 11000 12000
205 11000 12000
206 12000 12000
207 12000 12000
208 12000 12000
209 12000 12000
210 12000 12000
211 12000 12000
212 12000 12000
213 12000 12000
214 13000 12000
215 13000 12000
216 13000 12000
217 13000 12000
218 13000 12000
219 13000 12000
220 13000 12000
221 14000 12000
222 14000 12000
223 14000 12000
224 14000 12000
225 14000 12000
PICKUP_AND_DELIVERY_SECTION
1 0 0 0 0 0 0
2 0 0 0 0 0 82
3 0 0 0 0 11 0
4 0 0 0 0 5 0
5 0 0 0 0 0 4
6 0 0 0 0 7 0
7 0 0 0 0 0 6
8 0 0 0 0 0 71
9 0 0 0 0 0 77
10 0 0 0 0 0 14
11 0 0 0 0 0 3
12 0 0 0 0 0 67
13 0 0 0 0 0 28
14 0 0 0 0 10 0
15 0 0 0 0 16 0
16 0 0 0 0 0 15
17 0 0 0 0 18 0
18 0 0 0 0 0 17
19 0 0 0 0 0 65
20 0 0 0 0 51 0
21 0 0 0 0 53 0
22 0 0 0 0 23 0
23 0 0 0 0 0 22
24 0 0 0 0 33 0
25 0 0 0 0 186 0
26 0 0 0 0 31 0
27 0 0 0 0 0 34
28 0 0 0 0 13 0
29 0 0 0 0 0 38
30 0 0 0 0 0 35
31 0 0 0 0 0 26
32 0 0 0 0 0 45
33 0 0 0 0 0 24
34 0 0 0 0 27 0
35 0 0 0 0 30 0
36 0 0 0 0 0 44
37 0 0 0 0 0 42
38 0 0 0 0 29 0
39 0 0 0 0 0 43
40 0 0 0 0 149 0
41 0 0 0 0 0 171
42 0 0 0 0 37 0
43 0 0 0 0 39 0
44 0 0 0 0 36 0
45 0 0 0 0 32 0
46 0 0 0 0 0 47
47 0 0 0 0 46 0
48 0 0 0 0 0 49
49 0 0 0 0 48 0
50 0 0 0 0 113 0
51 0 0 0 0 0 20
52 0 0 0 0 0 54
53 0 0 0 0 0 21
54 0 0 0 0 52 0
55 0 0 0 0 0 57
56 0 0 0 0 0 63
57 0 0 0 0 55 0
58 0 0 0 0 61 0
59 0 0 0 0 62 0
60 0 0 0 0 0 64
61 0 0 0 0 0 58
62 0 0 0 0 0 59
63 0 0 0 0 56 0
64 0 0 0 0 60 0
65 0 0 0 0 19 0
66 0 0 0 0 70 0
67 0 0 0 0 12 0
68 0 0 0 0 0 69
69 0 0 0 0 68 0
70 0 0 0 0 0 66
71 0 0 0 0 8 0
72 0 0 0 0 0 85
73 0 0 0 0 80 0
74 0 0 0 0 76 0
75 0 0 0 0 78 0
76 0 0 0 0 0 74
77 0 0 0 0 9 0
78 0 0 0 0 0 75
79 0 0 0 0 81 0
80 0 0 0 0 0 73
81 0 0 0 0 0 79
82 0 0 0 0 2 0
83 0 0 0 0 84 0
84 0 0 0 0 0 83
85 0 0 0 0 72 0
86 0 0 0 0 0 101
87 0 0 0 0 88 0
88 0 0 0 0 0 87
89 0 0 0 0 91 0
90 0 0 0 0 0 100
91 0 0 0 0 0 89
92 0 0 0 0 0 93
93 0 0 0 0 92 0
94 0 0 0 0 95 0
95 0 0 0 0 0 94
96 0 0 0 0 98 0
97 0 0 0 0 0 153
98 0 0 0 0 0 96
99 0 0 0 0 137 0
100 0 0 0 0 90 0
101 0 0 0 0 86 0
102 0 0 0 0 0 111
103 0 0 0 0 0 109
104 0 0 0 0 0 105
105 0 0 0 0 104 0
106 0 0 0 0 114 0
107 0 0 0 0 110 0
108 0 0 0 0 221 0
109 0 0 0 0 103 0
110 0 0 0 0 0 107
111 0 0 0 0 102 0
112 0 0 0 0 0 116
113 0 0 0 0 0 50
114 0 0 0 0 0 106
115 0 0 0 0 0 117
116 0 0 0 0 112 0
117 0 0 0 0 115 0
118 0 0 0 0 129 0
119 0 0 0 0 127 0
120 0 0 0 0 0 134
121 0 0 0 0 210 0
122 0 0 0 0 0 224
123 0 0 0 0 0 124
124 0 0 0 0 123 0
125 0 0 0 0 126 0
126 0 0 0 0 0 125
127 0 0 0 0 0 119
128 0 0 0 0 0 133
129 0 0 0 0 0 118
130 0 0 0 0 0 131
131 0 0 0 0 130 0
132 0 0 0 0 0 135
133 0 0 0 0 128 0
134 0 0 0 0 120 0
135 0 0 0 0 132 0
136 0 0 0 0 143 0
137 0 0 0 0 0 99
138 0 0 0 0 141 0
139 0 0 0 0 0 146
140 0 0 0 0 148 0
141 0 0 0 0 0 138
142 0 0 0 0 147 0
143 0 0 0 0 0 136
144 0 0 0 0 145 0
145 0 0 0 0 0 144
146 0 0 0 0 139 0
147 0 0 0 0 0 142
148 0 0 0 0 0 140
149 0 0 0 0 0 40
150 0 0 0 0 0 154
151 0 0 0 0 152 0
152 0 0 0 0 0 151
153 0 0 0 0 97 0
154 0 0 0 0 150 0
155 0 0 0 0 158 0
156 0 0 0 0 0 163
157 0 0 0 0 0 160
158 0 0 0 0 0 155
159 0 0 0 0 165 0
160 0 0 0 0 157 0
161 0 0 0 0 164 0
162 0 0 0 0 0 168
163 0 0 0 0 156 0
164 0 0 0 0 0 161
165 0 0 0 0 0 159
166 0 0 0 0 182 0
167 0 0 0 0 0 169
168 0 0 0 0 162 0
169 0 0 0 0 167 0
170 0 0 0 0 0 173
171 0 0 0 0 41 0
172 0 0 0 0 0 180
173 0 0 0 0 170 0
174 0 0 0 0 175 0
175 0 0 0 0 0 174
176 0 0 0 0 177 0
177 0 0 0 0 0 176
178 0 0 0 0 179 0
179 0 0 0 0 0 178
180 0 0 0 0 172 0
181 0 0 0 0 0 183
182 0 0 0 0 0 166
183 0 0 0 0 181 0
184 0 0 0 0 0 185
185 0 0 0 0 184 0
186 0 0 0 0 0 25
187 0 0 0 0 215 0
188 0 0 0 0 0 189
189 0 0 0 0 188 0
190 0 0 0 0 196 0
191 0 0 0 0 0 199
192 0 0 0 0 208 0
193 0 0 0 0 197 0
194 0 0 0 0 0 195
195 0 0 0 0 194 0
196 0 0 0 0 0 190
197 0 0 0 0 0 193
198 0 0 0 0 0 200
199 0 0 0 0 191 0
200 0 0 0 0 198 0
201 0 0 0 0 202 0
202 0 0 0 0 0 201
203 0 0 0 0 206 0
204 0 0 0 0 0 205
205 0 0 0 0 204 0
206 0 0 0 0 0 203
207 0 0 0 0 209 0
208 0 0 0 0 0 192
209 0 0 0 0 0 207
210 0 0 0 0 0 121
211 0 0 0 0 0 213
212 0 0 0 0 214 0
213 0 0 0 0 211 0
214 0 0 0 0 0 212
215 0 0 0 0 0 187
216 0 0 0 0 218 0
217 0 0 0 0 0 222
218 0 0 0 0 0 216
219 0 0 0 0 0 223
220 0 0 0 0 0 225
221 0 0 0 0 0 108
222 0 0 0 0 217 0
223 0 0 0 0 219 0
224 0 0 0 0 122 0
225 0 0 0 0 220 0
DEPOT_SECTION
1 
-1
EOF
